%%% static parameters %%%
timespan = 1;
Fact = [4];
Distr1 = [15];
Distr2 = [30];
Clients_N = [1000];
Demand_W = [15];
Lt0 = [4];
Lt1 = [4];
SS_ = [0.85];
DS_D = [8];
K = [200];
MA = [500];
%%% dynamic parameters %%%
lost_ratio_sales_ret_th = 0.8272021356661978;
lost_ratio_sales_ret_w = 98;
lost_ratio_sales_dis_th = 0.2689980395216536;
lost_ratio_sales_dis_w = 63;
lost_ratio_sales_fac_th = 0.3595457534984319;
lost_ratio_sales_fac_w = 37;
stock_customer_MA_mean_relative_th = 0.13340001965858594;
stock_customer_MA_mean_relative_w = 58;
stock_distributor_MA_mean_relative_th = 0.27750001279852043;
stock_distributor_MA_mean_relative_w = 89;
stock_retailer_MA_mean_relative_th = 0.6848188399414733;
stock_retailer_MA_mean_relative_w = 65;
stock_factory_MA_mean_relative_th = 0.6326520493632768;
stock_factory_MA_mean_relative_w = 62;
